data;
set WEIGHTS := x0 x1 x2 x3 x4 x5 x6 x7 x8 x9 x10 x11 x12 x13 x14 x15 x16 x17 x18 x19 x20 x21 x22 x23;
param:  cost :=
  x0  600
  x1  601
  x2  602
  x3  603
  x4  604
  x5  605
  x6  606
  x7  607
  x8  608
  x9  609
  x10  610
  x11  611
  x12  612
  x13  613
  x14  614
  x15  615
  x16  616
  x17  617
  x18  618
  x19  619
  x20  620
  x21  621
  x22  622
  x23  623;
param cap := 7176;